tsp_instances/TSP20/instance55.tsp
NODE_COORD_SECTION
0 198 179
1 6 96
2 59 29
3 169 187
4 91 12
5 93 124
6 94 143
7 10 146
8 130 135
9 132 91
10 174 196
11 65 14
12 107 102
13 128 161
14 10 170
15 150 184
16 88 99
17 157 31
18 110 0
19 200 87
