tsp_instances/TSP20/instance55.opt.tour
TOUR_SECTION
1
11
4
16
14
9
10
13
17
6
7
15
8
2
3
12
5
19
18
20
-1